
n_res = 4;
rcap = [44, 39, 570, 602];
rtype = [1, 1, 2, 2];
n_tasks = 100;
modes =  [{1, 2, 3}, {4, 5, 6}, {7, 8, 9}, {10, 11, 12}, {13, 14, 15}, {16, 17, 18}, {19, 20, 21}, {22, 23, 24}, {25, 26, 27}, {28, 29, 30}, {31, 32, 33}, {34, 35, 36}, {37, 38, 39}, {40, 41, 42}, {43, 44, 45}, {46, 47, 48}, {49, 50, 51}, {52, 53, 54}, {55, 56, 57}, {58, 59, 60}, {61, 62, 63}, {64, 65, 66}, {67, 68, 69}, {70, 71, 72}, {73, 74, 75}, {76, 77, 78}, {79, 80, 81}, {82, 83, 84}, {85, 86, 87}, {88, 89, 90}, {91, 92, 93}, {94, 95, 96}, {97, 98, 99}, {100, 101, 102}, {103, 104, 105}, {106, 107, 108}, {109, 110, 111}, {112, 113, 114}, {115, 116, 117}, {118, 119, 120}, {121, 122, 123}, {124, 125, 126}, {127, 128, 129}, {130, 131, 132}, {133, 134, 135}, {136, 137, 138}, {139, 140, 141}, {142, 143, 144}, {145, 146, 147}, {148, 149, 150}, {151, 152, 153}, {154, 155, 156}, {157, 158, 159}, {160, 161, 162}, {163, 164, 165}, {166, 167, 168}, {169, 170, 171}, {172, 173, 174}, {175, 176, 177}, {178, 179, 180}, {181, 182, 183}, {184, 185, 186}, {187, 188, 189}, {190, 191, 192}, {193, 194, 195}, {196, 197, 198}, {199, 200, 201}, {202, 203, 204}, {205, 206, 207}, {208, 209, 210}, {211, 212, 213}, {214, 215, 216}, {217, 218, 219}, {220, 221, 222}, {223, 224, 225}, {226, 227, 228}, {229, 230, 231}, {232, 233, 234}, {235, 236, 237}, {238, 239, 240}, {241, 242, 243}, {244, 245, 246}, {247, 248, 249}, {250, 251, 252}, {253, 254, 255}, {256, 257, 258}, {259, 260, 261}, {262, 263, 264}, {265, 266, 267}, {268, 269, 270}, {271, 272, 273}, {274, 275, 276}, {277, 278, 279}, {280, 281, 282}, {283, 284, 285}, {286, 287, 288}, {289, 290, 291}, {292, 293, 294}, {295, 296, 297}, {298, 299, 300}];
succ =  [{69, 62, 60, 59, 58, 56, 53, 52, 48, 47, 44, 41, 30, 26, 23}, {100, 99, 97, 96, 82, 72, 71, 69, 63, 60, 58, 56, 54, 52, 51, 47, 44, 43, 42, 30}, {100, 69, 56, 54, 51, 49, 47, 46, 42, 41, 29, 22}, {100, 98, 94, 93, 84, 81, 72, 71, 70, 62, 53, 49, 46, 39, 36, 35}, {96, 93, 92, 84, 81, 72, 62, 60, 58, 57, 52, 46, 45, 44, 36, 34}, {99, 98, 97, 96, 91, 80, 70, 67, 65, 62, 61, 59, 53, 52, 44, 32}, {98, 96, 94, 93, 82, 62, 56, 47, 36, 34, 33}, {97, 86, 68, 66, 65, 62, 56, 52, 51, 50, 47, 46, 38}, {100, 97, 93, 87, 67, 63, 61, 47, 45, 44, 30}, {98, 97, 94, 90, 82, 70, 69, 67, 62, 53, 52, 45, 40, 34}, {98, 97, 94, 86, 71, 69, 56, 52, 47, 46, 25}, {100, 98, 92, 91, 90, 88, 84, 83, 80, 69, 67, 65, 63, 61, 59, 57, 53, 51, 44}, {97, 94, 92, 89, 88, 79, 67, 61, 58, 54, 50, 45, 40}, {88, 47, 44, 41, 30}, {99, 94, 89, 88, 86, 82, 77, 65, 64, 62, 58, 51, 47, 36}, {98, 97, 90, 89, 86, 83, 82, 79, 78, 77, 76, 67, 66, 65, 59, 51, 49, 47}, {98, 91, 90, 89, 88, 87, 84, 83, 80, 72, 71, 68, 57, 53, 48, 41}, {99, 98, 95, 92, 91, 90, 88, 85, 84, 72, 71, 66, 65, 64, 61, 56, 44}, {94, 93, 92, 89, 88, 87, 84, 79, 78, 68, 65, 61, 60, 57, 53, 45}, {100, 96, 95, 91, 88, 82, 80, 79, 78, 77, 76, 70, 66, 64, 56, 53, 52}, {92, 91, 88, 86, 85, 83, 81, 80, 79, 74, 68, 67, 65, 61, 54, 52}, {96, 95, 91, 90, 89, 86, 84, 83, 80, 79, 78, 68, 65, 64, 61, 58, 53}, {97, 96, 94, 90, 88, 85, 84, 74, 71, 66, 64, 51, 46}, {100, 98, 97, 96, 95, 93, 91, 90, 88, 84, 83, 80, 79, 78, 66, 57, 52}, {99, 96, 92, 90, 89, 88, 87, 85, 82, 81, 80, 79, 78, 76, 74, 68, 67, 66, 65, 64}, {100, 98, 95, 92, 91, 89, 83, 82, 81, 80, 79, 76, 75, 74, 65, 64, 54}, {96, 93, 88, 86, 85, 84, 83, 81, 80, 79, 78, 76, 68, 67, 66, 65, 59}, {98, 93, 89, 88, 87, 86, 85, 81, 80, 79, 78, 77, 74, 66, 65, 61}, {94, 92, 87, 83, 81, 80, 79, 78, 77, 70, 67, 65, 61, 59}, {98, 94, 90, 84, 83, 81, 79, 78, 75, 70, 68, 65, 49}, {97, 93, 89, 82, 80, 78, 77, 72, 60, 47}, {100, 88, 86, 82, 81, 76, 74, 68, 66, 47}, {99, 97, 87, 86, 83, 81, 80, 78, 77, 75, 69, 59}, {91, 88, 86, 83, 79, 78, 75, 74, 68, 65, 64}, {96, 92, 88, 82, 77, 76, 75, 74, 69, 67, 65}, {97, 95, 90, 83, 80, 79, 78, 74, 69, 66}, {90, 84, 83, 80, 79, 77, 75, 74, 73, 61}, {93, 88, 84, 83, 82, 78, 76, 75, 74, 64}, {92, 89, 83, 78, 76, 74, 69, 68, 65}, {96, 91, 86, 83, 78, 74, 51}, {99, 94, 93, 85, 82, 81, 79, 75, 67}, {98, 91, 88, 86, 79, 77, 74, 73, 66}, {91, 87, 84, 80, 79, 76, 75, 67, 64}, {94, 89, 86, 79, 78, 77, 76, 75, 73}, {85, 83, 80, 77, 76, 66, 64}, {80, 79, 77, 73, 61}, {95, 92, 85, 84, 75, 73}, {85, 81, 79, 76, 75}, {91, 80, 74, 64}, {96, 90, 80, 69}, {93, 87, 81, 73}, {89, 87, 75, 73}, {85, 75, 74, 73}, {90, 84, 78, 77}, {97, 84, 81, 76}, {81, 74, 67}, {76, 74, 64}, {87, 75, 74}, {74, 64}, {74, 64}, {82, 76}, {83, 76}, {78, 73}, {73}, {73}, {75}, {73}, {77}, {73}, {86}, {78}, {76}, {}, {}, {}, {}, {}, {}, {}, {}, {}, {}, {}, {}, {}, {}, {}, {}, {}, {}, {}, {}, {}, {}, {}, {}, {}, {}, {}, {}];
n_opt = 300;
dur = [1, 5, 7, 1, 3, 6, 4, 8, 10, 5, 7, 10, 4, 6, 9, 2, 7, 10, 6, 7, 10, 5, 6, 10, 4, 6, 8, 3, 3, 6, 2, 6, 9, 2, 3, 4, 5, 6, 7, 2, 3, 7, 6, 7, 8, 2, 4, 9, 1, 2, 10, 3, 4, 7, 1, 2, 6, 3, 3, 5, 2, 3, 10, 4, 7, 9, 2, 2, 3, 2, 9, 10, 6, 7, 9, 3, 3, 7, 4, 8, 9, 3, 4, 9, 4, 6, 9, 2, 4, 5, 4, 5, 5, 4, 5, 10, 7, 9, 10, 1, 5, 9, 4, 7, 10, 1, 2, 8, 1, 6, 10, 2, 7, 10, 3, 8, 8, 2, 4, 9, 2, 4, 10, 5, 5, 6, 8, 8, 9, 1, 7, 8, 2, 5, 9, 7, 8, 10, 2, 2, 6, 4, 9, 10, 1, 4, 6, 1, 4, 10, 1, 1, 10, 2, 9, 10, 2, 4, 5, 3, 4, 6, 4, 9, 10, 3, 6, 9, 5, 9, 9, 1, 3, 6, 4, 8, 9, 3, 7, 10, 2, 3, 8, 1, 7, 8, 1, 3, 10, 5, 7, 10, 6, 7, 8, 1, 2, 8, 2, 4, 7, 4, 6, 7, 2, 8, 8, 6, 7, 8, 7, 7, 8, 4, 4, 7, 1, 2, 4, 1, 4, 8, 1, 6, 9, 3, 3, 4, 1, 3, 7, 2, 3, 4, 1, 2, 5, 3, 5, 9, 1, 2, 4, 5, 9, 10, 1, 6, 9, 1, 2, 10, 2, 8, 10, 7, 9, 9, 1, 4, 9, 1, 2, 7, 1, 1, 6, 3, 6, 10, 5, 8, 10, 7, 8, 10, 3, 6, 7, 5, 6, 7, 1, 8, 10, 7, 8, 10, 4, 8, 9, 3, 5, 7, 3, 4, 8, 3, 4, 7];
rreq = [|6, 0, 3, 0, 5, 0, 0, 9, 9, 4, 2, 0, 0, 0, 1, 9, 7, 7, 0, 2, 0, 0, 3, 0, 8, 7, 0, 5, 0, 4, 0, 2, 0, 6, 6, 6, 6, 0, 0, 8, 6, 6, 0, 0, 6, 7, 0, 0, 3, 2, 0, 10, 6, 6, 0, 5, 4, 0, 6, 5, 0, 4, 0, 0, 0, 6, 0, 5, 2, 5, 0, 2, 10, 9, 9, 0, 5, 5, 0, 0, 0, 8, 8, 0, 0, 0, 0, 0, 0, 5, 0, 4, 0, 8, 0, 7, 8, 7, 0, 0, 6, 5, 10, 4, 3, 0, 0, 0, 3, 3, 0, 0, 0, 2, 0, 0, 2, 0, 0, 5, 8, 6, 0, 5, 0, 0, 0, 4, 0, 0, 6, 6, 8, 8, 8, 0, 0, 0, 8, 0, 3, 9, 8, 0, 0, 0, 6, 0, 0, 0, 3, 0, 0, 4, 4, 4, 0, 5, 2, 0, 2, 2, 7, 0, 0, 0, 8, 0, 0, 0, 2, 0, 7, 0, 0, 0, 0, 10, 0, 0, 9, 0, 0, 5, 0, 2, 0, 0, 0, 9, 8, 0, 9, 0, 9, 0, 0, 4, 10, 0, 5, 5, 4, 4, 10, 8, 0, 7, 0, 5, 0, 1, 1, 0, 5, 0, 0, 0, 8, 0, 0, 0, 10, 0, 0, 0, 9, 9, 0, 5, 0, 0, 9, 8, 1, 0, 1, 9, 0, 8, 0, 0, 0, 7, 0, 0, 9, 8, 0, 2, 2, 2, 0, 0, 5, 1, 0, 1, 4, 3, 2, 0, 8, 0, 0, 4, 4, 4, 4, 0, 8, 0, 0, 0, 5, 0, 7, 7, 7, 0, 0, 0, 0, 0, 0, 0, 0, 5, 9, 7, 4, 8, 7, 0, 0, 4, 0, 0, 0, 0
 |0, 5, 0, 5, 0, 4, 8, 0, 0, 0, 0, 5, 9, 5, 0, 0, 0, 0, 5, 0, 2, 2, 0, 2, 0, 0, 5, 0, 2, 0, 7, 0, 5, 0, 0, 0, 0, 6, 5, 0, 0, 0, 10, 8, 0, 0, 4, 4, 0, 0, 4, 0, 0, 0, 4, 0, 0, 4, 0, 0, 2, 0, 2, 2, 2, 0, 7, 0, 0, 0, 6, 0, 0, 0, 0, 7, 0, 0, 3, 3, 3, 0, 0, 7, 5, 4, 3, 8, 5, 0, 4, 0, 3, 0, 4, 0, 0, 0, 2, 10, 0, 0, 0, 0, 0, 9, 7, 6, 0, 0, 2, 8, 8, 0, 8, 7, 0, 3, 3, 0, 0, 0, 7, 0, 6, 6, 9, 0, 3, 8, 0, 0, 0, 0, 0, 3, 2, 2, 0, 6, 0, 0, 0, 3, 9, 8, 0, 8, 8, 6, 0, 3, 3, 0, 0, 0, 6, 0, 0, 6, 0, 0, 0, 5, 5, 8, 0, 3, 7, 6, 0, 3, 0, 1, 9, 8, 7, 0, 4, 3, 0, 3, 1, 0, 6, 0, 10, 9, 9, 0, 0, 5, 0, 5, 0, 2, 2, 0, 0, 8, 0, 0, 0, 0, 0, 0, 8, 0, 5, 0, 3, 0, 0, 7, 0, 7, 9, 5, 0, 8, 7, 5, 0, 5, 3, 8, 0, 0, 3, 0, 1, 5, 0, 0, 0, 3, 0, 0, 7, 0, 9, 7, 6, 0, 5, 5, 0, 0, 1, 0, 0, 0, 9, 7, 0, 0, 8, 0, 0, 0, 0, 5, 0, 4, 3, 0, 0, 0, 0, 2, 0, 2, 2, 6, 0, 4, 0, 0, 0, 9, 7, 7, 6, 6, 4, 9, 8, 0, 0, 0, 0, 0, 0, 3, 3, 0, 2, 6, 3, 3
 |10, 10, 10, 7, 6, 5, 3, 3, 3, 7, 3, 2, 6, 3, 2, 4, 2, 2, 6, 5, 5, 3, 3, 3, 8, 7, 6, 8, 7, 6, 10, 6, 6, 9, 5, 5, 8, 5, 4, 7, 6, 6, 7, 7, 7, 10, 7, 5, 8, 6, 6, 5, 4, 3, 7, 6, 5, 8, 8, 7, 9, 8, 7, 7, 6, 3, 6, 6, 6, 1, 1, 1, 8, 7, 7, 8, 6, 3, 5, 4, 1, 9, 7, 5, 7, 5, 2, 5, 5, 3, 6, 6, 6, 6, 4, 4, 8, 3, 1, 7, 5, 3, 2, 2, 2, 8, 8, 8, 8, 5, 2, 7, 6, 2, 4, 4, 4, 8, 7, 7, 7, 5, 2, 6, 4, 4, 4, 2, 1, 4, 4, 4, 1, 1, 1, 4, 3, 3, 1, 1, 1, 6, 6, 6, 9, 6, 5, 4, 3, 3, 5, 5, 3, 6, 4, 3, 6, 5, 4, 5, 4, 2, 7, 5, 5, 9, 5, 3, 7, 6, 6, 6, 6, 5, 6, 4, 4, 9, 8, 7, 7, 4, 2, 5, 4, 4, 3, 3, 3, 5, 3, 3, 6, 5, 2, 5, 5, 3, 5, 5, 5, 10, 8, 6, 7, 4, 2, 4, 3, 3, 3, 3, 3, 6, 5, 4, 8, 6, 5, 7, 5, 3, 3, 2, 2, 5, 2, 2, 9, 4, 2, 9, 6, 6, 9, 6, 5, 6, 5, 5, 7, 3, 1, 5, 5, 1, 9, 8, 5, 7, 6, 5, 10, 8, 7, 3, 3, 1, 7, 6, 4, 9, 8, 8, 9, 9, 9, 9, 7, 5, 3, 2, 2, 2, 1, 1, 5, 5, 3, 6, 5, 5, 3, 3, 3, 7, 6, 4, 7, 4, 4, 4, 3, 3, 4, 4, 4, 8, 6, 5
 |8, 6, 6, 5, 5, 5, 8, 6, 1, 6, 5, 5, 6, 6, 6, 5, 4, 3, 7, 5, 5, 10, 4, 2, 10, 6, 4, 8, 6, 3, 5, 4, 3, 6, 4, 3, 7, 6, 5, 6, 6, 5, 9, 6, 3, 8, 4, 3, 6, 6, 6, 7, 5, 5, 5, 4, 3, 7, 3, 2, 10, 7, 4, 7, 7, 7, 7, 6, 5, 5, 5, 5, 5, 5, 4, 5, 5, 5, 8, 7, 7, 5, 2, 2, 2, 2, 1, 9, 7, 2, 9, 8, 8, 3, 3, 3, 6, 4, 4, 8, 8, 7, 9, 4, 1, 7, 6, 6, 4, 2, 2, 7, 4, 3, 1, 1, 1, 6, 5, 4, 3, 3, 3, 7, 6, 5, 9, 7, 7, 9, 9, 8, 7, 5, 2, 7, 7, 6, 3, 3, 3, 8, 4, 4, 3, 2, 2, 6, 5, 4, 9, 8, 6, 1, 1, 1, 4, 4, 3, 6, 5, 4, 8, 8, 7, 8, 6, 5, 7, 6, 4, 5, 4, 2, 3, 2, 1, 9, 6, 2, 8, 4, 1, 9, 9, 7, 9, 7, 6, 6, 5, 5, 8, 4, 3, 6, 5, 5, 1, 1, 1, 6, 4, 3, 6, 3, 3, 5, 4, 3, 7, 5, 3, 5, 4, 4, 7, 6, 5, 6, 5, 5, 9, 4, 3, 7, 5, 2, 10, 9, 9, 9, 8, 6, 5, 4, 3, 10, 7, 5, 10, 5, 2, 6, 6, 6, 9, 8, 5, 3, 2, 2, 10, 7, 6, 9, 9, 9, 8, 6, 6, 7, 3, 1, 6, 5, 4, 8, 5, 3, 8, 5, 4, 7, 6, 6, 2, 1, 1, 7, 5, 4, 6, 5, 4, 7, 6, 5, 8, 6, 3, 10, 6, 3, 5, 4, 3, 9, 7, 4|];